76
150
105	8
104	7
103	9
102	7
101	4
100	4
99	9
98	7
97	3
96	1
95	7
94	6
93	6
92	5
91	3
90	4
89	7
88	8
87	7
86	3
85	5
84	2
83	6
82	8
81	4
80	7
79	4
78	6
77	6
76	5
75	2
74	4
73	3
72	8
71	5
70	8
69	4
68	3
67	6
66	3
65	5
64	7
63	1
62	4
61	4
60	9
59	2
58	3
57	5
56	3
55	4
54	2
53	4
52	6
51	6
50	3
49	6
48	5
47	3
46	9
45	4
44	2
43	7
42	7
41	6
40	6
39	10
38	5
37	6
36	5
35	8
34	4
33	6
32	8
31	4
30	7
